120
150
30
100
58
69
24
23
67
96
64
98
38
31
53
21
80
100
33
70
98
74
23
81
20
25
91
50
54
27
69
52
98
96
36
52
26
61
88
30
59
99
92
61
50
35
28
33
58
27
96
50
61
89
22
32
24
71
63
59
23
79
98
71
27
52
74
76
33
61
80
53
28
84
37
100
28
35
75
50
45
100
33
50
31
41
30
53
81
84
74
96
69
35
42
75
69
81
53
51
61
75
43
22
100
24
79
21
38
50
38
32
71
33
98
36
43
91
52
75
75
59
